# Solution for model micodag
# Objective value = 1.9719108745019224e+01
s_0_1 0
s_1_0 0
s_0_2 0
s_2_0 2.9859301991810661e-01
s_1_2 0
s_2_1 2.6750696540615193e-01
s_1_3 0
s_3_1 2.8683265424244020e-01
s_1_9 0
s_9_1 0
s_1_12 0
s_12_1 4.7419701469940279e-01
s_1_13 0
s_13_1 3.0228281866202034e-01
s_2_3 0
s_3_2 2.3769693183528862e-01
s_2_4 0
s_4_2 4.9366754751470676e-01
s_2_6 0
s_6_2 0
s_2_8 0
s_8_2 2.1926352765921120e-01
s_3_4 0
s_4_3 4.0549516185014145e+00
s_3_6 0
s_6_3 0
s_3_7 0
s_7_3 0
s_3_8 0
s_8_3 4.0549516185014145e+00
s_3_9 0
s_9_3 4.0549516185014145e+00
s_3_12 0
s_12_3 0
s_3_13 0
s_13_3 4.0549516185014145e+00
s_4_5 0
s_5_4 0
s_4_6 0
s_6_4 0.321611428423592
s_4_7 0
s_7_4 0
s_4_8 0
s_8_4 0
s_4_11 0
s_11_4 5.1702962008351783e-01
s_5_6 0
s_6_5 5.3316211994137630e-01
s_5_7 0
s_7_5 6.0933225404409175e-01
s_5_14 0
s_14_5 3.6780028043602542e-01
s_6_8 0
s_8_6 4.4832208756266745e-01
s_7_8 0
s_8_7 0
s_7_9 0
s_9_7 3.3000591427375925e-01
s_7_10 0
s_10_7 2.6425885848840025e-01
s_7_11 0
s_11_7 3.8911884014062981e-01
s_8_11 0
s_11_8 2.5345718276578033e-01
s_9_12 0
s_12_9 3.9251000126658742e-01
s_12_13 0
s_13_12 2.5627330454261488e-01
s_0_0 1.1114704391954890e+00
s_1_1 6.7914822034559919e-01
s_2_2 7.4269946400877185e-01
s_3_3 4.0549516185014145e+00
s_4_4 1.0330723188208939e+00
s_5_5 6.7996168153718584e-01
s_6_6 9.0976174329649062e-01
s_7_7 8.8954889495298817e-01
s_8_8 6.5556765693201768e-01
s_9_9 9.9413129413291479e-01
s_10_10 7.4941799300063172e-01
s_11_11 7.1389491539116179e-01
s_12_12 9.2075804393096217e-01
s_13_13 6.3211710877539806e-01
s_14_14 9.6537609035388083e-01
Gamma_0_0 1.0542629838875541e+00
Gamma_0_1 0
Gamma_0_2 0
Gamma_0_3 0
Gamma_0_4 0
Gamma_0_5 0
Gamma_0_6 0
Gamma_0_7 0
Gamma_0_8 0
Gamma_0_9 0
Gamma_0_10 0
Gamma_0_11 0
Gamma_0_12 0
Gamma_0_13 0
Gamma_0_14 0
Gamma_1_0 0
Gamma_1_1 8.2410449601103375e-01
Gamma_1_2 0
Gamma_1_3 0
Gamma_1_4 0
Gamma_1_5 0
Gamma_1_6 0
Gamma_1_7 0
Gamma_1_8 0
Gamma_1_9 0
Gamma_1_10 0
Gamma_1_11 0
Gamma_1_12 0
Gamma_1_13 0
Gamma_1_14 0
Gamma_2_0 -5.4643665682136167e-01
Gamma_2_1 -0.517210755307885
Gamma_2_2 8.6180012996562783e-01
Gamma_2_3 0
Gamma_2_4 0
Gamma_2_5 0
Gamma_2_6 0
Gamma_2_7 0
Gamma_2_8 0
Gamma_2_9 0
Gamma_2_10 0
Gamma_2_11 0
Gamma_2_12 0
Gamma_2_13 0
Gamma_2_14 0
Gamma_3_0 0
Gamma_3_1 5.3556760006785342e-01
Gamma_3_2 4.8754172317381150e-01
Gamma_3_3 8.2405736009019392e-01
Gamma_3_4 0
Gamma_3_5 0
Gamma_3_6 0
Gamma_3_7 0
Gamma_3_8 0
Gamma_3_9 0
Gamma_3_10 0
Gamma_3_11 0
Gamma_3_12 0
Gamma_3_13 0
Gamma_3_14 0
Gamma_4_0 0
Gamma_4_1 0
Gamma_4_2 7.0261479312259545e-01
Gamma_4_3 8.5374774109717433e-01
Gamma_4_4 1.0164016523111785e+00
Gamma_4_5 0
Gamma_4_6 0
Gamma_4_7 0
Gamma_4_8 0
Gamma_4_9 0
Gamma_4_10 0
Gamma_4_11 0
Gamma_4_12 0
Gamma_4_13 0
Gamma_4_14 0
Gamma_5_0 0
Gamma_5_1 0
Gamma_5_2 0
Gamma_5_3 0
Gamma_5_4 0
Gamma_5_5 0.824597890815388
Gamma_5_6 0
Gamma_5_7 0
Gamma_5_8 0
Gamma_5_9 0
Gamma_5_10 0
Gamma_5_11 0
Gamma_5_12 0
Gamma_5_13 0
Gamma_5_14 0
Gamma_6_0 0
Gamma_6_1 0
Gamma_6_2 0
Gamma_6_3 0
Gamma_6_4 -5.6710795129639369e-01
Gamma_6_5 7.3017951213477450e-01
Gamma_6_6 9.5381431279704088e-01
Gamma_6_7 0
Gamma_6_8 0
Gamma_6_9 0
Gamma_6_10 0
Gamma_6_11 0
Gamma_6_12 0
Gamma_6_13 0
Gamma_6_14 0
Gamma_7_0 0
Gamma_7_1 0
Gamma_7_2 0
Gamma_7_3 0
Gamma_7_4 0
Gamma_7_5 -7.8059736999562868e-01
Gamma_7_6 0
Gamma_7_7 9.4315899770557721e-01
Gamma_7_8 0
Gamma_7_9 0
Gamma_7_10 0
Gamma_7_11 0
Gamma_7_12 0
Gamma_7_13 0
Gamma_7_14 0
Gamma_8_0 0
Gamma_8_1 0
Gamma_8_2 4.6825583569157164e-01
Gamma_8_3 6.4951468572912563e-01
Gamma_8_4 0
Gamma_8_5 0
Gamma_8_6 -6.6956858316580870e-01
Gamma_8_7 0
Gamma_8_8 0.809671326485024
Gamma_8_9 0
Gamma_8_10 0
Gamma_8_11 0
Gamma_8_12 0
Gamma_8_13 0
Gamma_8_14 0
Gamma_9_0 0
Gamma_9_1 0
Gamma_9_2 0
Gamma_9_3 5.9624566641488341e-01
Gamma_9_4 0
Gamma_9_5 0
Gamma_9_6 0
Gamma_9_7 -5.7446141234530279e-01
Gamma_9_8 0
Gamma_9_9 9.9706132917334422e-01
Gamma_9_10 0
Gamma_9_11 0
Gamma_9_12 0
Gamma_9_13 0
Gamma_9_14 0
Gamma_10_0 0
Gamma_10_1 0
Gamma_10_2 0
Gamma_10_3 0
Gamma_10_4 0
Gamma_10_5 0
Gamma_10_6 0
Gamma_10_7 5.1406114275288406e-01
Gamma_10_8 0
Gamma_10_9 0
Gamma_10_10 8.6568931667234550e-01
Gamma_10_11 0
Gamma_10_12 0
Gamma_10_13 0
Gamma_10_14 0
Gamma_11_0 0
Gamma_11_1 0
Gamma_11_2 0
Gamma_11_3 0
Gamma_11_4 -7.1904771752889862e-01
Gamma_11_5 0
Gamma_11_6 0
Gamma_11_7 6.2379390838692106e-01
Gamma_11_8 5.0344531258695946e-01
Gamma_11_9 0
Gamma_11_10 0
Gamma_11_11 8.4492302335251923e-01
Gamma_11_12 0
Gamma_11_13 0
Gamma_11_14 0
Gamma_12_0 0
Gamma_12_1 -6.8861964443327051e-01
Gamma_12_2 0
Gamma_12_3 0
Gamma_12_4 0
Gamma_12_5 0
Gamma_12_6 0
Gamma_12_7 0
Gamma_12_8 0
Gamma_12_9 -6.2650618613592990e-01
Gamma_12_10 0
Gamma_12_11 0
Gamma_12_12 9.5956138101268085e-01
Gamma_12_13 0
Gamma_12_14 0
Gamma_13_0 0
Gamma_13_1 0.549802526969476
Gamma_13_2 0
Gamma_13_3 6.9338829186395745e-01
Gamma_13_4 0
Gamma_13_5 0
Gamma_13_6 0
Gamma_13_7 0
Gamma_13_8 0
Gamma_13_9 0
Gamma_13_10 0
Gamma_13_11 0
Gamma_13_12 5.0623443634606258e-01
Gamma_13_13 7.9505792793695151e-01
Gamma_13_14 0
Gamma_14_0 0
Gamma_14_1 0
Gamma_14_2 0
Gamma_14_3 0
Gamma_14_4 0
Gamma_14_5 6.0646539920759379e-01
Gamma_14_6 0
Gamma_14_7 0
Gamma_14_8 0
Gamma_14_9 0
Gamma_14_10 0
Gamma_14_11 0
Gamma_14_12 0
Gamma_14_13 0
Gamma_14_14 9.8253554152197564e-01
psi_0 6
psi_1 6
psi_2 5
psi_3 4
psi_4 3
psi_5 4
psi_6 2
psi_7 3
psi_8 1
psi_9 2
psi_10 0
psi_11 0
psi_12 1
psi_13 0
psi_14 0
g_0_0 0
g_0_1 0
g_0_2 0
g_0_3 0
g_0_4 0
g_0_5 0
g_0_6 0
g_0_7 0
g_0_8 0
g_0_9 0
g_0_10 0
g_0_11 0
g_0_12 0
g_0_13 0
g_0_14 0
g_1_0 0
g_1_1 0
g_1_2 0
g_1_3 0
g_1_4 0
g_1_5 0
g_1_6 0
g_1_7 0
g_1_8 0
g_1_9 0
g_1_10 0
g_1_11 0
g_1_12 0
g_1_13 0
g_1_14 0
g_2_0 1
g_2_1 1
g_2_2 0
g_2_3 0
g_2_4 0
g_2_5 0
g_2_6 0
g_2_7 0
g_2_8 0
g_2_9 0
g_2_10 0
g_2_11 0
g_2_12 0
g_2_13 0
g_2_14 0
g_3_0 0
g_3_1 1
g_3_2 1
g_3_3 0
g_3_4 0
g_3_5 0
g_3_6 0
g_3_7 0
g_3_8 0
g_3_9 0
g_3_10 0
g_3_11 0
g_3_12 0
g_3_13 0
g_3_14 0
g_4_0 0
g_4_1 0
g_4_2 1
g_4_3 1
g_4_4 0
g_4_5 0
g_4_6 0
g_4_7 0
g_4_8 0
g_4_9 0
g_4_10 0
g_4_11 0
g_4_12 0
g_4_13 0
g_4_14 0
g_5_0 0
g_5_1 0
g_5_2 0
g_5_3 0
g_5_4 0
g_5_5 0
g_5_6 0
g_5_7 0
g_5_8 0
g_5_9 0
g_5_10 0
g_5_11 0
g_5_12 0
g_5_13 0
g_5_14 0
g_6_0 0
g_6_1 0
g_6_2 0
g_6_3 0
g_6_4 1
g_6_5 1
g_6_6 0
g_6_7 0
g_6_8 0
g_6_9 0
g_6_10 0
g_6_11 0
g_6_12 0
g_6_13 0
g_6_14 0
g_7_0 0
g_7_1 0
g_7_2 0
g_7_3 0
g_7_4 0
g_7_5 1
g_7_6 0
g_7_7 0
g_7_8 0
g_7_9 0
g_7_10 0
g_7_11 0
g_7_12 0
g_7_13 0
g_7_14 0
g_8_0 0
g_8_1 0
g_8_2 1
g_8_3 1
g_8_4 0
g_8_5 0
g_8_6 1
g_8_7 0
g_8_8 0
g_8_9 0
g_8_10 0
g_8_11 0
g_8_12 0
g_8_13 0
g_8_14 0
g_9_0 0
g_9_1 0
g_9_2 0
g_9_3 1
g_9_4 0
g_9_5 0
g_9_6 0
g_9_7 1
g_9_8 0
g_9_9 0
g_9_10 0
g_9_11 0
g_9_12 0
g_9_13 0
g_9_14 0
g_10_0 0
g_10_1 0
g_10_2 0
g_10_3 0
g_10_4 0
g_10_5 0
g_10_6 0
g_10_7 1
g_10_8 0
g_10_9 0
g_10_10 0
g_10_11 0
g_10_12 0
g_10_13 0
g_10_14 0
g_11_0 0
g_11_1 0
g_11_2 0
g_11_3 0
g_11_4 1
g_11_5 0
g_11_6 0
g_11_7 1
g_11_8 1
g_11_9 0
g_11_10 0
g_11_11 0
g_11_12 0
g_11_13 0
g_11_14 0
g_12_0 0
g_12_1 1
g_12_2 0
g_12_3 0
g_12_4 0
g_12_5 0
g_12_6 0
g_12_7 0
g_12_8 0
g_12_9 1
g_12_10 0
g_12_11 0
g_12_12 0
g_12_13 0
g_12_14 0
g_13_0 0
g_13_1 1
g_13_2 0
g_13_3 1
g_13_4 0
g_13_5 0
g_13_6 0
g_13_7 0
g_13_8 0
g_13_9 0
g_13_10 0
g_13_11 0
g_13_12 1
g_13_13 0
g_13_14 0
g_14_0 0
g_14_1 0
g_14_2 0
g_14_3 0
g_14_4 0
g_14_5 1
g_14_6 0
g_14_7 0
g_14_8 0
g_14_9 0
g_14_10 0
g_14_11 0
g_14_12 0
g_14_13 0
g_14_14 0
T_0 5.2841929326392825e-02
T_1 -1.9345794156570606e-01
T_2 -1.4873190299323066e-01
T_3 -1.9351513973550741e-01
T_4 1.6268598113060750e-02
T_5 -1.9285941654017594e-01
T_6 -4.7286267152766195e-02
T_7 -5.8520402178042580e-02
T_8 -2.1112688343405828e-01
T_9 -2.9429971977019851e-03
T_10 -1.4422919151768610e-01
T_11 -1.6850975239875030e-01
T_12 -4.1278993706935461e-02
T_13 -2.2934030165285557e-01
T_14 -1.7618761315930542e-02
